(declare-fun temp2120_1 () (_ BitVec 64))
(declare-fun var2166536 () (_ BitVec 64))
(declare-fun temp2120_3 () (_ BitVec 64))
(declare-fun temp2120_2 () (_ BitVec 64))
(declare-fun temp2120_4 () (_ BitVec 64))
(declare-fun var4659636 () (_ BitVec 64))
(declare-fun temp2120_5 () (_ BitVec 64))
(declare-fun var5637942 () (_ BitVec 64))
(declare-fun var5837020 () (_ BitVec 64))
(declare-fun temp2120_6 () (_ BitVec 64))
(declare-fun temp2120_7 () (_ BitVec 64))
(declare-fun var6164823 () (_ BitVec 64))
(declare-fun temp2120_8 () (_ BitVec 64))
(declare-fun var6164824 () (_ BitVec 64))
(declare-fun temp2120_10 () (_ BitVec 64))
(declare-fun temp2120_9 () (_ BitVec 64))
(declare-fun temp2120_11 () (_ BitVec 64))
(declare-fun var7215137 () (_ BitVec 64))
(declare-fun temp2120_13 () (_ BitVec 64))
(declare-fun temp2120_12 () (_ BitVec 64))
(declare-fun temp2120_14 () (_ BitVec 64))
(declare-fun var7473192 () (_ BitVec 64))
(declare-fun var7473234 () (_ BitVec 64))
(declare-fun temp2120_16 () (_ BitVec 64))
(declare-fun temp2120_15 () (_ BitVec 64))
(declare-fun temp2120_17 () (_ BitVec 64))
(declare-fun var8063992 () (_ BitVec 64))
(declare-fun var7473179 () (_ BitVec 64))
(declare-fun var7473178 () (_ BitVec 64))
(declare-fun temp2120_18 () (_ BitVec 64))
(declare-fun var7473183 () (_ BitVec 64))
(declare-fun temp2120_19 () (_ BitVec 64))
(declare-fun var7473185 () (_ BitVec 64))
(declare-fun temp2120_20 () (_ BitVec 64))
(declare-fun var8587470 () (_ BitVec 64))
(declare-fun temp2120_21 () (_ BitVec 64))
(declare-fun temp2120_22 () (_ BitVec 64))
(declare-fun var8587516 () (_ BitVec 64))
(declare-fun var8587547 () (_ BitVec 64))
(declare-fun var8587468 () (_ BitVec 64))
(declare-fun var7215194 () (_ BitVec 64))
(declare-fun var7215195 () (_ BitVec 64))
(declare-fun temp2120_23 () (_ BitVec 64))
(declare-fun var9114245 () (_ BitVec 64))
(declare-fun var9114249 () (_ BitVec 64))
(declare-fun var9114250 () (_ BitVec 64))
(declare-fun var9245400 () (_ BitVec 64))
(declare-fun var9245401 () (_ BitVec 64))
(assert (= temp2120_1 #x0000000000000005))
(assert (= var2166536 temp2120_1))
(assert (= temp2120_3 #x0000000000000000))
(assert (= temp2120_2 temp2120_3))
(assert (= temp2120_4 #x0000000000000000))
(assert (= var4659636 temp2120_4))
(assert (= temp2120_5 #x0000000000000001))
(assert (= var5637942 temp2120_5))
(assert (= var5837020 var5637942))
(assert (= temp2120_6 #x0000000000000001))
(assert (= var5837020 temp2120_6))
(assert (= temp2120_7 #x0000000000000000))
(assert (= var6164823 temp2120_7))
(assert (= temp2120_8 #x0000000000000000))
(assert (= var6164824 temp2120_8))
(assert (= temp2120_10 #x0000000000000000))
(assert (= temp2120_9 temp2120_10))
(assert (= temp2120_11 #x0000000000000000))
(assert (= var7215137 temp2120_11))
(assert (= temp2120_13 #x0000000000000000))
(assert (= temp2120_12 temp2120_13))
(assert (= temp2120_14 #x0000000000000000))
(assert (= var7473192 temp2120_14))
(assert (= var7473234 var7473192))
(assert (= temp2120_16 #x0000000000000000))
(assert (= temp2120_15 temp2120_16))
(assert (= temp2120_17 #x0000000000000001))
(assert (= var8063992 temp2120_17))
(assert (= var7473179 var7473234))
(assert (= var7473178 var7473179))
(assert (= temp2120_18 #x0000000000000001))
(assert (= var7473183 (bvand var7473178 temp2120_18)))
(assert (= temp2120_19 #x0000000000000000))
(assert (= var7473185
   (ite (= var7473183 temp2120_19) #x0000000000000001 #x0000000000000000)))
(assert (= temp2120_20 #x0000000000000001))
(assert (= var7473185 temp2120_20))
(assert (= var8587470 var7215137))
(assert (= temp2120_21 #x0000000000000002))
(assert (= temp2120_22 #x0000000000000000))
(assert (= var8587516 (ite (= var8587470 #x0000000000000001) temp2120_21 temp2120_22)))
(assert (= var8587547 var8587516))
(assert (= var8587468 var8587547))
(assert (= var7215194 var8587468))
(assert (= var7215195 var7215194))
(assert (= temp2120_23 #x0000000000000004))
(assert (= var9114245 temp2120_23))
(assert (= var9114249 var7215195))
(assert (= var9114250 var7215137))
(assert (= var9245400 var9114249))
(assert (= var9245401 var9114250))
(model-add temp2120_1 () (_ BitVec 64) #x0000000000000005)
(model-add var2166536 () (_ BitVec 64) #x0000000000000005)
(model-add temp2120_3 () (_ BitVec 64) #x0000000000000000)
(model-add temp2120_2 () (_ BitVec 64) #x0000000000000000)
(model-add temp2120_4 () (_ BitVec 64) #x0000000000000000)
(model-add var4659636 () (_ BitVec 64) #x0000000000000000)
(model-add temp2120_5 () (_ BitVec 64) #x0000000000000001)
(model-add var5637942 () (_ BitVec 64) #x0000000000000001)
(model-add var5837020 () (_ BitVec 64) #x0000000000000001)
(model-add temp2120_6 () (_ BitVec 64) #x0000000000000001)






